size_x = 5;
size_y = 5;

given = [|
  1, 5, 3|
  2, 2, 3|
  3, 5, 2|
  4, 1, 5|
  4, 2, 2|
  4, 3, 3|
  4, 4, 3|
  4, 5, 2|
  5, 3, 2|];
 
 
% <> <> <> <>  3
% <>  3 <> <> <>
% <> <> <> <>  2
%  5  2  3  3  2
% <> <>  2 <> <>
